InboundTrucks  = 60;
OutboundTrucks = 30;
InboundDoors   = 6;
OutboundDoors  = 6;
ReleaseTime    = [100,86,10,114,111,72,73,68,62,61,16,112,102,82,40,82,101,82,108,104,12,82,107,24,19,33,73,6,89,99,32,50,112,100,29,106,80,51,9,34,3,25,82,111,64,26,23,111,86,42,21,113,11,70,113,118,76,59,114,89];
UnloadTime     = [33,18,41,39,10,13,25,17,24,35,27,42,32,12,20,39,16,37,45,20,23,24,16,13,23,11,43,28,19,25,40,31,39,16,12,36,43,15,34,16,13,27,34,43,29,41,13,39,12,13,39,16,16,26,15,16,45,41,30,19];
LoadTime       = [18,30,17,10,19,22,6,21,14,24,21,8,29,14,19,6,9,20,23,13,29,24,29,12,16,6,23,20,21,5];
TransferTime   = [| 0,0,0,0,0,0,0,0,32,0,0,0,0,0,0,0,0,34,0,0,0,13,0,0,48,0,0,0,0,0 | 0,0,0,0,48,27,10,0,0,0,27,0,0,26,0,37,0,0,35,0,0,0,19,0,0,0,0,0,17,0 | 0,0,35,0,19,11,0,44,0,0,0,0,0,0,24,0,0,0,0,0,38,10,37,0,45,14,0,0,0,0 | 0,0,0,0,0,0,0,39,0,0,0,20,0,0,0,0,23,25,0,0,28,0,28,0,0,0,0,0,0,0 | 27,0,0,0,0,0,19,0,0,0,0,0,0,0,25,0,0,0,14,0,0,47,0,0,16,0,0,0,0,0 | 0,45,0,44,0,47,12,0,22,0,20,0,0,0,26,0,0,0,43,0,0,0,0,40,0,0,0,0,43,0 | 0,10,0,0,36,0,0,0,42,12,27,0,38,0,40,0,0,0,13,0,0,0,20,0,0,0,0,0,0,0 | 0,0,37,0,10,0,0,0,0,0,23,11,0,18,28,0,46,0,0,0,16,0,0,0,0,38,0,0,0,0 | 0,15,33,0,0,19,25,0,38,43,0,0,0,14,34,0,0,0,0,0,0,0,18,0,0,0,32,50,0,0 | 0,0,34,0,0,0,0,0,0,0,15,0,35,0,24,0,0,0,0,0,0,0,45,0,46,0,0,0,0,0 | 0,0,0,33,39,0,0,38,0,0,0,0,0,0,50,0,49,0,0,0,28,0,37,0,0,46,0,0,0,19 | 0,0,0,0,11,0,0,0,0,0,0,0,0,0,0,0,0,30,0,0,26,11,0,0,0,0,0,0,0,26 | 0,46,29,41,44,40,0,0,0,41,0,40,0,0,0,38,16,29,0,0,0,0,43,24,0,0,0,46,0,35 | 0,0,0,0,0,18,0,0,0,0,0,12,0,0,0,0,0,0,0,0,10,0,0,19,0,50,0,0,0,0 | 0,0,0,0,0,50,0,43,0,0,0,0,0,0,23,39,0,0,0,0,0,0,41,27,20,0,0,0,0,31 | 0,0,0,0,0,0,0,0,0,14,0,0,0,0,0,29,27,0,47,0,0,0,26,0,0,27,0,0,0,0 | 30,28,0,0,0,0,0,0,42,0,0,48,0,0,22,0,0,0,0,45,0,30,42,0,0,0,21,25,0,0 | 0,0,0,0,0,0,0,0,0,0,0,0,30,21,0,0,0,0,0,0,0,20,0,0,0,0,0,0,40,42 | 0,0,0,22,0,0,43,0,0,0,0,0,34,0,0,17,0,0,0,0,25,10,0,0,10,32,0,0,0,0 | 0,0,0,15,43,0,0,0,0,0,0,0,48,0,0,0,0,0,0,36,40,0,0,0,0,0,0,0,26,11 | 0,17,0,22,0,0,0,0,0,0,0,0,0,20,0,0,0,0,0,0,0,0,0,24,0,0,33,0,0,0 | 0,42,0,0,0,0,0,0,0,33,0,0,0,0,0,0,0,0,0,0,0,0,49,0,0,0,0,0,0,31 | 0,0,0,0,0,0,0,50,0,0,35,0,0,36,0,0,0,0,0,29,0,0,0,0,0,10,11,0,0,18 | 0,45,0,46,49,0,22,0,0,29,0,0,34,41,0,0,0,34,0,20,18,41,0,0,34,0,31,0,0,0 | 0,0,0,0,35,0,0,14,0,0,0,0,0,0,0,0,0,0,0,0,0,0,19,0,0,23,0,0,0,0 | 0,0,0,50,0,0,30,25,0,0,0,29,20,49,0,0,0,22,0,0,0,0,0,49,0,47,0,0,0,0 | 0,16,0,34,0,0,49,0,0,0,22,17,0,0,44,0,11,16,0,0,43,0,0,0,10,25,0,0,49,0 | 0,0,0,44,0,0,16,37,0,0,0,0,13,28,0,0,0,23,13,21,0,40,21,0,16,0,0,0,0,0 | 0,0,0,15,0,26,0,0,0,26,0,0,23,28,16,20,0,0,35,0,0,0,0,25,46,26,0,0,0,23 | 0,0,0,0,0,49,0,33,0,0,0,12,0,0,0,0,0,0,0,0,0,0,18,0,26,0,0,0,0,0 | 0,0,0,0,0,0,41,0,0,0,0,0,0,0,50,0,0,0,29,0,0,0,0,0,15,0,0,0,0,0 | 0,14,0,0,0,0,31,0,15,0,0,46,0,0,43,0,0,39,11,44,0,0,0,0,15,0,0,0,0,34 | 0,0,0,12,0,0,0,12,0,0,32,0,0,0,0,0,0,21,0,0,39,0,16,0,19,0,0,0,22,0 | 35,0,22,38,0,0,0,0,0,0,0,0,0,30,0,0,38,0,0,0,0,0,0,0,0,49,17,0,0,0 | 31,0,0,0,22,0,0,0,0,0,0,0,0,0,10,17,0,0,0,0,0,25,35,0,0,50,45,0,0,0 | 0,30,0,0,0,0,0,0,0,0,0,0,18,27,0,0,0,36,0,0,0,0,0,33,0,0,0,0,0,0 | 0,0,0,31,0,26,0,43,0,29,0,12,16,0,0,0,50,0,0,0,0,16,36,0,44,0,0,0,0,21 | 0,0,0,0,0,0,0,11,37,10,0,34,0,0,0,0,0,0,0,0,0,0,0,0,0,0,0,0,0,28 | 0,0,22,14,20,0,14,26,0,0,0,23,0,0,0,0,41,0,0,0,0,0,0,12,0,0,0,0,35,0 | 0,0,33,0,0,0,0,0,0,0,42,0,18,0,0,34,0,0,0,0,0,0,0,0,27,0,0,0,0,0 | 0,29,22,0,0,0,0,0,0,0,0,0,10,0,0,0,0,0,0,50,0,0,24,0,0,0,43,0,0,0 | 0,36,0,0,0,0,0,0,0,0,0,0,0,0,0,0,0,39,0,0,0,0,18,0,0,0,0,0,0,0 | 0,0,0,21,0,0,14,0,0,43,0,0,0,0,14,18,0,0,0,0,0,44,0,0,0,0,0,0,0,0 | 0,28,0,0,29,0,0,0,0,0,22,39,0,0,0,0,0,0,0,0,0,0,0,0,0,0,0,0,0,31 | 0,14,0,12,0,0,39,0,0,0,0,14,0,0,38,20,0,0,0,0,47,0,0,0,22,0,29,0,0,0 | 0,0,0,0,0,0,0,0,41,0,0,0,0,0,0,11,0,0,49,0,0,33,0,0,0,0,0,0,50,39 | 0,0,0,0,0,0,0,0,0,0,0,0,0,0,0,36,0,39,0,0,0,0,15,0,0,0,0,26,0,16 | 0,0,0,0,0,38,0,0,16,0,0,0,0,0,0,21,0,0,0,0,0,0,0,0,0,0,0,0,0,0 | 0,25,0,0,0,0,0,0,17,0,0,0,0,0,48,0,0,26,0,0,0,0,0,0,0,0,0,0,0,0 | 0,12,0,0,0,19,49,26,0,0,0,50,0,0,0,28,0,0,0,11,0,42,0,11,0,24,27,16,49,0 | 0,0,0,0,0,0,0,22,0,0,0,0,0,22,0,0,0,0,0,0,0,0,0,0,41,0,42,19,0,0 | 0,45,34,0,0,0,0,0,0,0,44,0,39,0,0,0,18,0,11,0,0,14,0,12,0,0,0,41,20,0 | 0,49,30,0,0,32,0,0,0,0,46,0,0,0,0,0,0,28,0,47,47,11,31,0,50,0,10,0,11,0 | 0,25,0,19,50,0,13,0,0,42,0,0,50,0,0,0,0,0,46,0,0,0,0,0,46,0,32,0,0,0 | 24,44,0,0,0,17,13,0,0,0,0,21,0,0,0,17,0,0,0,29,0,0,12,0,0,0,36,0,0,0 | 41,0,11,23,0,0,0,41,42,0,0,0,11,0,24,0,0,0,37,0,0,0,0,48,0,0,0,0,0,28 | 0,0,0,0,0,0,0,0,0,0,0,47,0,0,26,29,50,0,0,0,0,0,0,0,0,22,0,12,0,0 | 0,0,30,0,0,0,34,49,48,46,0,0,0,0,0,0,48,0,0,0,30,28,0,0,0,0,0,0,0,0 | 0,0,38,30,26,0,0,0,0,0,31,0,0,0,0,0,0,19,0,0,0,25,0,27,0,0,47,0,32,0 | 0,45,0,0,0,0,0,0,0,0,0,0,0,0,0,0,0,0,0,0,0,0,0,0,0,0,0,0,0,0 |];
